webassembly/ejemplos_dzn/folder7_json_78.dzn
TERM = { '.', 'in_1', 'local_0', 'local_1', 'in_2', 'in_4', 'in_3', 's(1)', 's(0)', 'in_0'};
null = '.';
s = 7;
n = 10;
ndeps = 3;
max_registers_sz = 4;
NR = 1;
registers = [|'local_1', 's(0)'|];
dependencies = [|'i32.load16_u_0', 'i32.store8_3', |'i32.store8_3', 'i32.load8_u_4', |'i32.load8_u_4', 'i32.store_5'|];
GET_ENUM = { GET1, GET2, GET3, GET4, GET5};
SET_ENUM = { SET1, SET2, SET3, SET4, SET5};
TEE_ENUM = { TEE1, TEE2, TEE3, TEE4, TEE5};
N = 5;
OP = { 'i32.load16_u_0', 'i32.store8_3', 'i32.load8_u_4', 'i32.store_5', 'local.get_0' };
in_ops = [1, 2, 1, 2, 0 ];
out_ops = [1, 0, 1, 0, 1 ];
in1 = ['in_0', 'in_1', 'in_3', 's(1)', '.' ];
in2 = ['.', 'in_2', '.', 'in_4', '.' ];
in3 = ['.', '.', '.', '.', '.' ];
out1 = ['s(0)', '.', 's(1)', '.', 'local_0' ];
out2 = ['.', '.', '.', '.', '.' ];
out3 = ['.', '.', '.', '.', '.' ];
comm = [false, false, false, false, false ];
gas = [1, 1, 1, 1, 1 ];
sz = [1, 1, 1, 1, 1 ];
stor = [false, true, false, true, false ];
lb = [ 1, 1, 1, 1, 1 ];
ub = [ 7, 7, 7, 7, 7 ];
startstack = [ 'in_0', 'in_1', 'in_2', 'in_3', 'in_4', null, null, null, null, null ];
endstack = [ 'local_0', null, null, null, null, null, null, null, null, null ];
