webassembly/ejemplos_results/folder7_json_78.txt
value = 7;
fgas = [1, 1, 1, 1, 1, 1, 1];
fsize = [1, 1, 1, 1, 1, 1, 1];
states = 
[|    in_0, in_1, in_2, in_3, in_4, '.', '.', '.', '.',  '.'
 |  's(0)', in_1, in_2, in_3, in_4, '.', '.', '.', '.',  '.'
 |  's(0)', in_1, in_2, in_3, in_4, '.', '.', '.', '.',  '.'
 |    in_1, in_2, in_3, in_4,  '.', '.', '.', '.', '.',  '.'
 |    in_3, in_4,  '.',  '.',  '.', '.', '.', '.', '.',  '.'
 |  's(1)', in_4,  '.',  '.',  '.', '.', '.', '.', '.',  '.'
 |    in_0,  '.',  '.',  '.',  '.', '.', '.', '.', '.', in_0
 | local_0,  '.',  '.',  '.',  '.', '.', '.', '.', '.',  '.'
 |];
register_states = 
[| local_1, '.', '.', '.', '.'
 | local_1, '.', '.', '.', '.'
 |  's(0)', '.', '.', '.', '.'
 |  's(0)', '.', '.', '.', '.'
 |  's(0)', '.', '.', '.', '.'
 |  's(0)', '.', '.', '.', '.'
 |  's(0)', '.', '.', '.', '.'
 |  's(0)', '.', '.', '.', '.'
 |];
program = [O('i32.load16_u_0'), TEE(TEE1), S(SET1), O('i32.store8_3'), O('i32.load8_u_4'), O('i32.store_5'), O('local.get_0')];
% time elapsed: 0.09 s
----------
value = 6;
fgas = [1, 1, 1, 1, 1, 1, 0];
fsize = [1, 1, 1, 1, 1, 1, 1];
states = 
[|    in_0, in_1, in_2, in_3, in_4, '.', '.', '.', '.',     '.'
 |  's(0)', in_1, in_2, in_3, in_4, '.', '.', '.', '.',     '.'
 |    in_1, in_2, in_3, in_4,  '.', '.', '.', '.', '.',     '.'
 |    in_3, in_4,  '.',  '.',  '.', '.', '.', '.', '.',     '.'
 |  's(1)', in_4,  '.',  '.',  '.', '.', '.', '.', '.',     '.'
 |    in_0,  '.',  '.',  '.',  '.', '.', '.', '.', '.', local_0
 | local_0,  '.',  '.',  '.',  '.', '.', '.', '.', '.',     '.'
 | local_0,  '.',  '.',  '.',  '.', '.', '.', '.', '.',     '.'
 |];
register_states = 
[| local_1, '.', '.', '.', '.'
 | local_1, '.', '.', '.', '.'
 |  's(0)', '.', '.', '.', '.'
 |  's(0)', '.', '.', '.', '.'
 |  's(0)', '.', '.', '.', '.'
 |  's(0)', '.', '.', '.', '.'
 |  's(0)', '.', '.', '.', '.'
 |  's(0)', '.', '.', '.', '.'
 |];
program = [O('i32.load16_u_0'), S(SET1), O('i32.store8_3'), O('i32.load8_u_4'), O('i32.store_5'), O('local.get_0'), NOP];
% time elapsed: 0.09 s
----------
==========
% time elapsed: 0.09 s
% [value > 5]
